NAME : random_11
COMMENT : 39 random nodes
TYPE : TSP
DIMENSION : 39
EDGE_WEIGHT_TYPE : EUC_2D
NODE_COORD_SECTION
1 150 -645
2 -1019 3543
3 -484 -393
4 -2555 -605
5 3573 -1530
6 2756 2702
7 3779 1351
8 4151 -407
9 1944 39
10 -1407 2418
11 337 685
12 -744 2351
13 2632 2966
14 2114 222
15 3004 -2113
16 2805 1233
17 2697 4116
18 3407 4158
19 3430 3688
20 3334 4576
21 -115 -2433
22 1677 -1787
23 -931 4562
24 -1504 2960
25 1633 68
26 -188 3311
27 -417 -534
28 -262 2485
29 3043 -470
30 851 996
31 -460 3910
32 -1333 2341
33 -131 1429
34 2859 -2486
35 -1327 1182
36 -782 -778
37 -2696 -589
38 -2671 -1564
39 2274 -1125
EOF